certificates/rado_a5_c188_N37.cnf
c Rad2 upper bound instance: x1 + 5*x2 - x3 = 188, interval [1,37]
p cnf 37 266
1 4 37 0
-1 -4 -37 0
2 5 37 0
-2 -5 -37 0
3 6 37 0
-3 -6 -37 0
4 7 37 0
-4 -7 -37 0
5 8 37 0
-5 -8 -37 0
1 9 36 0
-1 -9 -36 0
6 9 37 0
-6 -9 -37 0
2 10 36 0
-2 -10 -36 0
7 10 37 0
-7 -10 -37 0
3 11 36 0
-3 -11 -36 0
8 11 37 0
-8 -11 -37 0
4 12 36 0
-4 -12 -36 0
9 12 37 0
-9 -12 -37 0
5 13 36 0
-5 -13 -36 0
10 13 37 0
-10 -13 -37 0
1 14 35 0
-1 -14 -35 0
6 14 36 0
-6 -14 -36 0
11 14 37 0
-11 -14 -37 0
2 15 35 0
-2 -15 -35 0
7 15 36 0
-7 -15 -36 0
12 15 37 0
-12 -15 -37 0
3 16 35 0
-3 -16 -35 0
8 16 36 0
-8 -16 -36 0
13 16 37 0
-13 -16 -37 0
4 17 35 0
-4 -17 -35 0
9 17 36 0
-9 -17 -36 0
14 17 37 0
-14 -17 -37 0
5 18 35 0
-5 -18 -35 0
10 18 36 0
-10 -18 -36 0
15 18 37 0
-15 -18 -37 0
1 19 34 0
-1 -19 -34 0
6 19 35 0
-6 -19 -35 0
11 19 36 0
-11 -19 -36 0
16 19 37 0
-16 -19 -37 0
2 20 34 0
-2 -20 -34 0
7 20 35 0
-7 -20 -35 0
12 20 36 0
-12 -20 -36 0
17 20 37 0
-17 -20 -37 0
3 21 34 0
-3 -21 -34 0
8 21 35 0
-8 -21 -35 0
13 21 36 0
-13 -21 -36 0
18 21 37 0
-18 -21 -37 0
4 22 34 0
-4 -22 -34 0
9 22 35 0
-9 -22 -35 0
14 22 36 0
-14 -22 -36 0
19 22 37 0
-19 -22 -37 0
5 23 34 0
-5 -23 -34 0
10 23 35 0
-10 -23 -35 0
15 23 36 0
-15 -23 -36 0
20 23 37 0
-20 -23 -37 0
1 24 33 0
-1 -24 -33 0
6 24 34 0
-6 -24 -34 0
11 24 35 0
-11 -24 -35 0
16 24 36 0
-16 -24 -36 0
21 24 37 0
-21 -24 -37 0
2 25 33 0
-2 -25 -33 0
7 25 34 0
-7 -25 -34 0
12 25 35 0
-12 -25 -35 0
17 25 36 0
-17 -25 -36 0
22 25 37 0
-22 -25 -37 0
3 26 33 0
-3 -26 -33 0
8 26 34 0
-8 -26 -34 0
13 26 35 0
-13 -26 -35 0
18 26 36 0
-18 -26 -36 0
23 26 37 0
-23 -26 -37 0
4 27 33 0
-4 -27 -33 0
9 27 34 0
-9 -27 -34 0
14 27 35 0
-14 -27 -35 0
19 27 36 0
-19 -27 -36 0
24 27 37 0
-24 -27 -37 0
5 28 33 0
-5 -28 -33 0
10 28 34 0
-10 -28 -34 0
15 28 35 0
-15 -28 -35 0
20 28 36 0
-20 -28 -36 0
25 28 37 0
-25 -28 -37 0
1 29 32 0
-1 -29 -32 0
6 29 33 0
-6 -29 -33 0
11 29 34 0
-11 -29 -34 0
16 29 35 0
-16 -29 -35 0
21 29 36 0
-21 -29 -36 0
26 29 37 0
-26 -29 -37 0
2 30 32 0
-2 -30 -32 0
7 30 33 0
-7 -30 -33 0
12 30 34 0
-12 -30 -34 0
17 30 35 0
-17 -30 -35 0
22 30 36 0
-22 -30 -36 0
27 30 37 0
-27 -30 -37 0
3 31 32 0
-3 -31 -32 0
8 31 33 0
-8 -31 -33 0
13 31 34 0
-13 -31 -34 0
18 31 35 0
-18 -31 -35 0
23 31 36 0
-23 -31 -36 0
28 31 37 0
-28 -31 -37 0
4 32 0
-4 -32 0
9 32 33 0
-9 -32 -33 0
14 32 34 0
-14 -32 -34 0
19 32 35 0
-19 -32 -35 0
24 32 36 0
-24 -32 -36 0
29 32 37 0
-29 -32 -37 0
5 32 33 0
-5 -32 -33 0
10 33 0
-10 -33 0
15 33 34 0
-15 -33 -34 0
20 33 35 0
-20 -33 -35 0
25 33 36 0
-25 -33 -36 0
30 33 37 0
-30 -33 -37 0
1 31 34 0
-1 -31 -34 0
6 32 34 0
-6 -32 -34 0
11 33 34 0
-11 -33 -34 0
16 34 0
-16 -34 0
21 34 35 0
-21 -34 -35 0
26 34 36 0
-26 -34 -36 0
31 34 37 0
-31 -34 -37 0
2 31 35 0
-2 -31 -35 0
7 32 35 0
-7 -32 -35 0
12 33 35 0
-12 -33 -35 0
17 34 35 0
-17 -34 -35 0
22 35 0
-22 -35 0
27 35 36 0
-27 -35 -36 0
32 35 37 0
-32 -35 -37 0
3 31 36 0
-3 -31 -36 0
8 32 36 0
-8 -32 -36 0
13 33 36 0
-13 -33 -36 0
18 34 36 0
-18 -34 -36 0
23 35 36 0
-23 -35 -36 0
28 36 0
-28 -36 0
33 36 37 0
-33 -36 -37 0
4 31 37 0
-4 -31 -37 0
9 32 37 0
-9 -32 -37 0
14 33 37 0
-14 -33 -37 0
19 34 37 0
-19 -34 -37 0
24 35 37 0
-24 -35 -37 0
29 36 37 0
-29 -36 -37 0
34 37 0
-34 -37 0
