certificates/rado_a5_c188_N37.drat
-37 0
34 0
-16 0
13 0
19 0
-31 0
-1 0
28 0
4 0
-10 0
-36 0
-32 0
-22 0
7 0
18 0
33 0
29 0
24 0
8 0
9 0
2 0
3 0
23 0
35 0
14 0
25 0
30 0
-20 0
0
